Minimize
	value: tt

Subject to
tt + 1024 s_1_1 > 0.0
tt - t_1_1 - 1027.705315 s_1_1 + 3.705315 s_1_8 > -1022.872111
tt + 1024 s_2_1 > 0.0
tt - t_2_1 - 1027.463893 s_2_1 + 3.463893 s_2_8 > -1015.812990
tt + 1024 s_1_2 > 0.0
tt - t_1_2 - 1025.852658 s_1_2 + 1.852658 s_1_7 > -1022.929378
tt + 1024 s_2_2 > 0.0
tt - t_2_2 - 1025.731947 s_2_2 + 1.731947 s_2_7 > -1015.963756
tt + 1024 s_1_3 > 0.0
tt - t_1_3 - 1029.557973 s_1_3 + 5.557973 s_1_7 > -1023.831300
tt + 1024 s_2_3 > 0.0
tt - t_2_3 - 1029.195840 s_2_3 + 5.195840 s_2_7 > -1022.576875
tt + 1024 s_1_4 > 0.0
tt - t_1_4 - 1025.852658 s_1_4 + 1.852658 s_1_7 > -1023.749700
tt + 1024 s_2_4 > 0.0
tt - t_2_4 - 1025.731947 s_2_4 + 1.731947 s_2_7 > -1021.937464
tt + 1024 s_1_5 > 0.0
tt - t_1_5 - 1026.778986 s_1_5 + 2.778986 s_1_8 > -1023.545789
tt + 1024 s_2_5 > 0.0
tt - t_2_5 - 1026.597920 s_2_5 + 2.597920 s_2_8 > -1019.803024
tt + 1024 s_1_6 > 0.0
tt - t_1_6 - 1057.347835 s_1_6 + 33.347835 s_1_2 > -1023.847000
tt + 1024 s_2_6 > 0.0
tt - t_2_6 - 1055.175040 s_2_6 + 31.175040 s_2_2 > -1022.817500
tt + 1024 s_1_7 > 0.0
tt - t_1_7 - 1024.000000 s_1_7 > -1018.185925
tt + 1024 s_2_7 > 0.0
tt - t_2_7 - 1024.000000 s_2_7 > -1005.861536
tt + 1024 s_1_8 > 0.0
tt - t_1_8 - 1024.000000 s_1_8 > -1022.925500
tt + 1024 s_2_8 > 0.0
tt - t_2_8 - 1024.000000 s_2_8 > -1021.167569
s_1_1 + s_2_1  = 1
s_1_2 + s_2_2  = 1
s_1_3 + s_2_3  = 1
s_1_4 + s_2_4  = 1
s_1_5 + s_2_5  = 1
s_1_6 + s_2_6  = 1
s_1_7 + s_2_7  = 1
s_1_8 + s_2_8  = 1
s_1_1 + s_1_2 + 1024 r_1_1_2 >= 2
- s_1_1 - s_1_2 - 1024 r_1_1_2 >= -1025
t_1_1 - t_1_2 - 1024.000000 u_1_1_2 - 1.852658 s_1_2 + 1.852658 s_1_7 + 2048.000000 r_1_1_2 > -1022.929378
s_2_1 + s_2_2 + 1024 r_2_1_2 >= 2
- s_2_1 - s_2_2 - 1024 r_2_1_2 >= -1025
t_2_1 - t_2_2 - 1024.000000 u_2_1_2 - 1.731947 s_2_2 + 1.731947 s_2_7 + 2048.000000 r_2_1_2 > -1015.963756
s_1_1 + s_1_3 + 1024 r_1_1_3 >= 2
- s_1_1 - s_1_3 - 1024 r_1_1_3 >= -1025
t_1_1 - t_1_3 - 1024.000000 u_1_1_3 - 2.778986 s_1_3 + 2.778986 s_1_7 + 2048.000000 r_1_1_3 > -1023.831300
s_2_1 + s_2_3 + 1024 r_2_1_3 >= 2
- s_2_1 - s_2_3 - 1024 r_2_1_3 >= -1025
t_2_1 - t_2_3 - 1024.000000 u_2_1_3 - 2.597920 s_2_3 + 2.597920 s_2_7 + 2048.000000 r_2_1_3 > -1022.576875
s_1_1 + s_1_4 + 1024 r_1_1_4 >= 2
- s_1_1 - s_1_4 - 1024 r_1_1_4 >= -1025
t_1_1 - t_1_4 - 1024.000000 u_1_1_4 - 1.852658 s_1_4 + 1.852658 s_1_7 + 2048.000000 r_1_1_4 > -1023.749700
s_2_1 + s_2_4 + 1024 r_2_1_4 >= 2
- s_2_1 - s_2_4 - 1024 r_2_1_4 >= -1025
t_2_1 - t_2_4 - 1024.000000 u_2_1_4 - 1.731947 s_2_4 + 1.731947 s_2_7 + 2048.000000 r_2_1_4 > -1021.937464
s_1_1 + s_1_5 + 1024 r_1_1_5 >= 2
- s_1_1 - s_1_5 - 1024 r_1_1_5 >= -1025
t_1_1 - t_1_5 - 1024.000000 u_1_1_5 - 2.778986 s_1_5 + 2.778986 s_1_8 + 2048.000000 r_1_1_5 > -1023.545789
s_2_1 + s_2_5 + 1024 r_2_1_5 >= 2
- s_2_1 - s_2_5 - 1024 r_2_1_5 >= -1025
t_2_1 - t_2_5 - 1024.000000 u_2_1_5 - 2.597920 s_2_5 + 2.597920 s_2_8 + 2048.000000 r_2_1_5 > -1019.803024
t_1_6 - t_1_1 - 2.980546 s_1_1 + 1.852658 s_1_8 > 0.0
t_1_6 - t_2_1 - 9.918957 s_2_1 + 1.731947 s_2_8 > 0.0
t_2_6 - t_1_1 - 2.980546 s_1_1 + 1.852658 s_1_8 > 0.0
t_2_6 - t_2_1 - 9.918957 s_2_1 + 1.731947 s_2_8 > 0.0
t_1_1 - t_1_7 - 1024.000000 s_1_7 > -1018.185925
t_1_1 - t_2_7 - 1024.000000 s_2_7 > -1005.861536
t_2_1 - t_1_7 - 1024.000000 s_1_7 > -1018.185925
t_2_1 - t_2_7 - 1024.000000 s_2_7 > -1005.861536
t_1_1 - t_1_8 - 1024.000000 s_1_8 > -1022.925500
t_1_1 - t_2_8 - 1024.000000 s_2_8 > -1021.167569
t_2_1 - t_1_8 - 1024.000000 s_1_8 > -1022.925500
t_2_1 - t_2_8 - 1024.000000 s_2_8 > -1021.167569
s_1_2 + s_1_1 + 1024 r_1_1_2 >= 2
- s_1_2 - s_1_1 - 1024 r_1_1_2 >= -1025
t_1_2 - t_1_1 + 1024.000000 u_1_1_2 - 1.852658 s_1_1 + 1.852658 s_1_8 + 2048.000000 r_1_1_2 > 1.127889
s_2_2 + s_2_1 + 1024 r_2_1_2 >= 2
- s_2_2 - s_2_1 - 1024 r_2_1_2 >= -1025
t_2_2 - t_2_1 + 1024.000000 u_2_1_2 - 1.731947 s_2_1 + 1.731947 s_2_8 + 2048.000000 r_2_1_2 > 8.187010
s_1_2 + s_1_3 + 1024 r_1_2_3 >= 2
- s_1_2 - s_1_3 - 1024 r_1_2_3 >= -1025
t_1_2 - t_1_3 - 1024.000000 u_1_2_3 - 2.778986 s_1_3 + 2.778986 s_1_7 + 2048.000000 r_1_2_3 > -1023.831300
s_2_2 + s_2_3 + 1024 r_2_2_3 >= 2
- s_2_2 - s_2_3 - 1024 r_2_2_3 >= -1025
t_2_2 - t_2_3 - 1024.000000 u_2_2_3 - 2.597920 s_2_3 + 2.597920 s_2_7 + 2048.000000 r_2_2_3 > -1022.576875
s_1_2 + s_1_4 + 1024 r_1_2_4 >= 2
- s_1_2 - s_1_4 - 1024 r_1_2_4 >= -1025
t_1_2 - t_1_4 - 1024.000000 u_1_2_4 - 1.852658 s_1_4 + 1.852658 s_1_7 + 2048.000000 r_1_2_4 > -1023.749700
s_2_2 + s_2_4 + 1024 r_2_2_4 >= 2
- s_2_2 - s_2_4 - 1024 r_2_2_4 >= -1025
t_2_2 - t_2_4 - 1024.000000 u_2_2_4 - 1.731947 s_2_4 + 1.731947 s_2_7 + 2048.000000 r_2_2_4 > -1021.937464
s_1_2 + s_1_5 + 1024 r_1_2_5 >= 2
- s_1_2 - s_1_5 - 1024 r_1_2_5 >= -1025
t_1_2 - t_1_5 - 1024.000000 u_1_2_5 - 2.778986 s_1_5 + 2.778986 s_1_8 + 2048.000000 r_1_2_5 > -1023.545789
s_2_2 + s_2_5 + 1024 r_2_2_5 >= 2
- s_2_2 - s_2_5 - 1024 r_2_2_5 >= -1025
t_2_2 - t_2_5 - 1024.000000 u_2_2_5 - 2.597920 s_2_5 + 2.597920 s_2_8 + 2048.000000 r_2_2_5 > -1019.803024
t_1_6 - t_1_2 - 2.923280 s_1_2 + 1.852658 s_1_7 > 0.0
t_1_6 - t_2_2 - 9.768191 s_2_2 + 1.731947 s_2_7 > 0.0
t_2_6 - t_1_2 - 2.923280 s_1_2 + 1.852658 s_1_7 > 0.0
t_2_6 - t_2_2 - 9.768191 s_2_2 + 1.731947 s_2_7 > 0.0
t_1_2 - t_1_7 - 1024.000000 s_1_7 > -1018.185925
t_1_2 - t_2_7 - 1024.000000 s_2_7 > -1005.861536
t_2_2 - t_1_7 - 1024.000000 s_1_7 > -1018.185925
t_2_2 - t_2_7 - 1024.000000 s_2_7 > -1005.861536
s_1_2 + s_1_8 + 1024 r_1_2_8 >= 2
- s_1_2 - s_1_8 - 1024 r_1_2_8 >= -1025
t_1_2 - t_1_8 - 1024.000000 u_1_2_8 + 2048.000000 r_1_2_8 > -1022.925500
s_2_2 + s_2_8 + 1024 r_2_2_8 >= 2
- s_2_2 - s_2_8 - 1024 r_2_2_8 >= -1025
t_2_2 - t_2_8 - 1024.000000 u_2_2_8 + 2048.000000 r_2_2_8 > -1021.167569
s_1_3 + s_1_1 + 1024 r_1_1_3 >= 2
- s_1_3 - s_1_1 - 1024 r_1_1_3 >= -1025
t_1_3 - t_1_1 + 1024.000000 u_1_1_3 - 1.852658 s_1_1 + 1.852658 s_1_8 + 2048.000000 r_1_1_3 > 1.127889
s_2_3 + s_2_1 + 1024 r_2_1_3 >= 2
- s_2_3 - s_2_1 - 1024 r_2_1_3 >= -1025
t_2_3 - t_2_1 + 1024.000000 u_2_1_3 - 1.731947 s_2_1 + 1.731947 s_2_8 + 2048.000000 r_2_1_3 > 8.187010
s_1_3 + s_1_2 + 1024 r_1_2_3 >= 2
- s_1_3 - s_1_2 - 1024 r_1_2_3 >= -1025
t_1_3 - t_1_2 + 1024.000000 u_1_2_3 - 1.852658 s_1_2 + 1.852658 s_1_7 + 2048.000000 r_1_2_3 > 1.070622
s_2_3 + s_2_2 + 1024 r_2_2_3 >= 2
- s_2_3 - s_2_2 - 1024 r_2_2_3 >= -1025
t_2_3 - t_2_2 + 1024.000000 u_2_2_3 - 1.731947 s_2_2 + 1.731947 s_2_7 + 2048.000000 r_2_2_3 > 8.036244
s_1_3 + s_1_4 + 1024 r_1_3_4 >= 2
- s_1_3 - s_1_4 - 1024 r_1_3_4 >= -1025
t_1_3 - t_1_4 - 1024.000000 u_1_3_4 - 1.852658 s_1_4 + 1.852658 s_1_7 + 2048.000000 r_1_3_4 > -1023.749700
s_2_3 + s_2_4 + 1024 r_2_3_4 >= 2
- s_2_3 - s_2_4 - 1024 r_2_3_4 >= -1025
t_2_3 - t_2_4 - 1024.000000 u_2_3_4 - 1.731947 s_2_4 + 1.731947 s_2_7 + 2048.000000 r_2_3_4 > -1021.937464
s_1_3 + s_1_5 + 1024 r_1_3_5 >= 2
- s_1_3 - s_1_5 - 1024 r_1_3_5 >= -1025
t_1_3 - t_1_5 - 1024.000000 u_1_3_5 - 2.778986 s_1_5 + 2.778986 s_1_8 + 2048.000000 r_1_3_5 > -1023.545789
s_2_3 + s_2_5 + 1024 r_2_3_5 >= 2
- s_2_3 - s_2_5 - 1024 r_2_3_5 >= -1025
t_2_3 - t_2_5 - 1024.000000 u_2_3_5 - 2.597920 s_2_5 + 2.597920 s_2_8 + 2048.000000 r_2_3_5 > -1019.803024
t_1_6 - t_1_3 - 2.947686 s_1_3 + 2.778986 s_1_7 > 0.0
t_1_6 - t_2_3 - 4.021045 s_2_3 + 2.597920 s_2_7 > 0.0
t_2_6 - t_1_3 - 2.947686 s_1_3 + 2.778986 s_1_7 > 0.0
t_2_6 - t_2_3 - 4.021045 s_2_3 + 2.597920 s_2_7 > 0.0
t_1_3 - t_1_7 - 1024.000000 s_1_7 > -1018.185925
t_1_3 - t_2_7 - 1024.000000 s_2_7 > -1005.861536
t_2_3 - t_1_7 - 1024.000000 s_1_7 > -1018.185925
t_2_3 - t_2_7 - 1024.000000 s_2_7 > -1005.861536
t_1_3 - t_1_8 - 1024.000000 s_1_8 > -1022.925500
t_1_3 - t_2_8 - 1024.000000 s_2_8 > -1021.167569
t_2_3 - t_1_8 - 1024.000000 s_1_8 > -1022.925500
t_2_3 - t_2_8 - 1024.000000 s_2_8 > -1021.167569
s_1_4 + s_1_1 + 1024 r_1_1_4 >= 2
- s_1_4 - s_1_1 - 1024 r_1_1_4 >= -1025
t_1_4 - t_1_1 + 1024.000000 u_1_1_4 - 1.852658 s_1_1 + 1.852658 s_1_8 + 2048.000000 r_1_1_4 > 1.127889
s_2_4 + s_2_1 + 1024 r_2_1_4 >= 2
- s_2_4 - s_2_1 - 1024 r_2_1_4 >= -1025
t_2_4 - t_2_1 + 1024.000000 u_2_1_4 - 1.731947 s_2_1 + 1.731947 s_2_8 + 2048.000000 r_2_1_4 > 8.187010
s_1_4 + s_1_2 + 1024 r_1_2_4 >= 2
- s_1_4 - s_1_2 - 1024 r_1_2_4 >= -1025
t_1_4 - t_1_2 + 1024.000000 u_1_2_4 - 1.852658 s_1_2 + 1.852658 s_1_7 + 2048.000000 r_1_2_4 > 1.070622
s_2_4 + s_2_2 + 1024 r_2_2_4 >= 2
- s_2_4 - s_2_2 - 1024 r_2_2_4 >= -1025
t_2_4 - t_2_2 + 1024.000000 u_2_2_4 - 1.731947 s_2_2 + 1.731947 s_2_7 + 2048.000000 r_2_2_4 > 8.036244
s_1_4 + s_1_3 + 1024 r_1_3_4 >= 2
- s_1_4 - s_1_3 - 1024 r_1_3_4 >= -1025
t_1_4 - t_1_3 + 1024.000000 u_1_3_4 - 2.778986 s_1_3 + 2.778986 s_1_7 + 2048.000000 r_1_3_4 > 0.168700
s_2_4 + s_2_3 + 1024 r_2_3_4 >= 2
- s_2_4 - s_2_3 - 1024 r_2_3_4 >= -1025
t_2_4 - t_2_3 + 1024.000000 u_2_3_4 - 2.597920 s_2_3 + 2.597920 s_2_7 + 2048.000000 r_2_3_4 > 1.423125
s_1_4 + s_1_5 + 1024 r_1_4_5 >= 2
- s_1_4 - s_1_5 - 1024 r_1_4_5 >= -1025
t_1_4 - t_1_5 - 1024.000000 u_1_4_5 - 2.778986 s_1_5 + 2.778986 s_1_8 + 2048.000000 r_1_4_5 > -1023.545789
s_2_4 + s_2_5 + 1024 r_2_4_5 >= 2
- s_2_4 - s_2_5 - 1024 r_2_4_5 >= -1025
t_2_4 - t_2_5 - 1024.000000 u_2_4_5 - 2.597920 s_2_5 + 2.597920 s_2_8 + 2048.000000 r_2_4_5 > -1019.803024
t_1_6 - t_1_4 - 2.102958 s_1_4 + 1.852658 s_1_7 > 0.0
t_1_6 - t_2_4 - 3.794482 s_2_4 + 1.731947 s_2_7 > 0.0
t_2_6 - t_1_4 - 2.102958 s_1_4 + 1.852658 s_1_7 > 0.0
t_2_6 - t_2_4 - 3.794482 s_2_4 + 1.731947 s_2_7 > 0.0
t_1_4 - t_1_7 - 1024.000000 s_1_7 > -1018.185925
t_1_4 - t_2_7 - 1024.000000 s_2_7 > -1005.861536
t_2_4 - t_1_7 - 1024.000000 s_1_7 > -1018.185925
t_2_4 - t_2_7 - 1024.000000 s_2_7 > -1005.861536
s_1_4 + s_1_8 + 1024 r_1_4_8 >= 2
- s_1_4 - s_1_8 - 1024 r_1_4_8 >= -1025
t_1_4 - t_1_8 - 1024.000000 u_1_4_8 + 2048.000000 r_1_4_8 > -1022.925500
s_2_4 + s_2_8 + 1024 r_2_4_8 >= 2
- s_2_4 - s_2_8 - 1024 r_2_4_8 >= -1025
t_2_4 - t_2_8 - 1024.000000 u_2_4_8 + 2048.000000 r_2_4_8 > -1021.167569
s_1_5 + s_1_1 + 1024 r_1_1_5 >= 2
- s_1_5 - s_1_1 - 1024 r_1_1_5 >= -1025
t_1_5 - t_1_1 + 1024.000000 u_1_1_5 - 1.852658 s_1_1 + 1.852658 s_1_8 + 2048.000000 r_1_1_5 > 1.127889
s_2_5 + s_2_1 + 1024 r_2_1_5 >= 2
- s_2_5 - s_2_1 - 1024 r_2_1_5 >= -1025
t_2_5 - t_2_1 + 1024.000000 u_2_1_5 - 1.731947 s_2_1 + 1.731947 s_2_8 + 2048.000000 r_2_1_5 > 8.187010
s_1_5 + s_1_2 + 1024 r_1_2_5 >= 2
- s_1_5 - s_1_2 - 1024 r_1_2_5 >= -1025
t_1_5 - t_1_2 + 1024.000000 u_1_2_5 - 1.852658 s_1_2 + 1.852658 s_1_7 + 2048.000000 r_1_2_5 > 1.070622
s_2_5 + s_2_2 + 1024 r_2_2_5 >= 2
- s_2_5 - s_2_2 - 1024 r_2_2_5 >= -1025
t_2_5 - t_2_2 + 1024.000000 u_2_2_5 - 1.731947 s_2_2 + 1.731947 s_2_7 + 2048.000000 r_2_2_5 > 8.036244
s_1_5 + s_1_3 + 1024 r_1_3_5 >= 2
- s_1_5 - s_1_3 - 1024 r_1_3_5 >= -1025
t_1_5 - t_1_3 + 1024.000000 u_1_3_5 - 2.778986 s_1_3 + 2.778986 s_1_7 + 2048.000000 r_1_3_5 > 0.168700
s_2_5 + s_2_3 + 1024 r_2_3_5 >= 2
- s_2_5 - s_2_3 - 1024 r_2_3_5 >= -1025
t_2_5 - t_2_3 + 1024.000000 u_2_3_5 - 2.597920 s_2_3 + 2.597920 s_2_7 + 2048.000000 r_2_3_5 > 1.423125
s_1_5 + s_1_4 + 1024 r_1_4_5 >= 2
- s_1_5 - s_1_4 - 1024 r_1_4_5 >= -1025
t_1_5 - t_1_4 + 1024.000000 u_1_4_5 - 1.852658 s_1_4 + 1.852658 s_1_7 + 2048.000000 r_1_4_5 > 0.250300
s_2_5 + s_2_4 + 1024 r_2_4_5 >= 2
- s_2_5 - s_2_4 - 1024 r_2_4_5 >= -1025
t_2_5 - t_2_4 + 1024.000000 u_2_4_5 - 1.731947 s_2_4 + 1.731947 s_2_7 + 2048.000000 r_2_4_5 > 2.062536
t_1_6 - t_1_5 - 3.233197 s_1_5 + 2.778986 s_1_8 > 0.0
t_1_6 - t_2_5 - 6.794896 s_2_5 + 2.597920 s_2_8 > 0.0
t_2_6 - t_1_5 - 3.233197 s_1_5 + 2.778986 s_1_8 > 0.0
t_2_6 - t_2_5 - 6.794896 s_2_5 + 2.597920 s_2_8 > 0.0
s_1_5 + s_1_7 + 1024 r_1_5_7 >= 2
- s_1_5 - s_1_7 - 1024 r_1_5_7 >= -1025
t_1_5 - t_1_7 - 1024.000000 u_1_5_7 + 2048.000000 r_1_5_7 > -1018.185925
s_2_5 + s_2_7 + 1024 r_2_5_7 >= 2
- s_2_5 - s_2_7 - 1024 r_2_5_7 >= -1025
t_2_5 - t_2_7 - 1024.000000 u_2_5_7 + 2048.000000 r_2_5_7 > -1005.861536
t_1_5 - t_1_8 - 1024.000000 s_1_8 > -1022.925500
t_1_5 - t_2_8 - 1024.000000 s_2_8 > -1021.167569
t_2_5 - t_1_8 - 1024.000000 s_1_8 > -1022.925500
t_2_5 - t_2_8 - 1024.000000 s_2_8 > -1021.167569
t_1_6 - t_1_7 - 1024.000000 s_1_7 > -1018.185925
t_1_6 - t_2_7 - 1024.000000 s_2_7 > -1005.861536
t_2_6 - t_1_7 - 1024.000000 s_1_7 > -1018.185925
t_2_6 - t_2_7 - 1024.000000 s_2_7 > -1005.861536
s_1_7 + s_1_5 + 1024 r_1_5_7 >= 2
- s_1_7 - s_1_5 - 1024 r_1_5_7 >= -1025
t_1_7 - t_1_5 + 1024.000000 u_1_5_7 - 2.778986 s_1_5 + 2.778986 s_1_8 + 2048.000000 r_1_5_7 > 0.454211
s_2_7 + s_2_5 + 1024 r_2_5_7 >= 2
- s_2_7 - s_2_5 - 1024 r_2_5_7 >= -1025
t_2_7 - t_2_5 + 1024.000000 u_2_5_7 - 2.597920 s_2_5 + 2.597920 s_2_8 + 2048.000000 r_2_5_7 > 4.196976
s_1_7 + s_1_8 + 1024 r_1_7_8 >= 2
- s_1_7 - s_1_8 - 1024 r_1_7_8 >= -1025
t_1_7 - t_1_8 - 1024.000000 u_1_7_8 + 2048.000000 r_1_7_8 > -1022.925500
s_2_7 + s_2_8 + 1024 r_2_7_8 >= 2
- s_2_7 - s_2_8 - 1024 r_2_7_8 >= -1025
t_2_7 - t_2_8 - 1024.000000 u_2_7_8 + 2048.000000 r_2_7_8 > -1021.167569
s_1_8 + s_1_2 + 1024 r_1_2_8 >= 2
- s_1_8 - s_1_2 - 1024 r_1_2_8 >= -1025
t_1_8 - t_1_2 + 1024.000000 u_1_2_8 - 1.852658 s_1_2 + 1.852658 s_1_7 + 2048.000000 r_1_2_8 > 1.070622
s_2_8 + s_2_2 + 1024 r_2_2_8 >= 2
- s_2_8 - s_2_2 - 1024 r_2_2_8 >= -1025
t_2_8 - t_2_2 + 1024.000000 u_2_2_8 - 1.731947 s_2_2 + 1.731947 s_2_7 + 2048.000000 r_2_2_8 > 8.036244
s_1_8 + s_1_4 + 1024 r_1_4_8 >= 2
- s_1_8 - s_1_4 - 1024 r_1_4_8 >= -1025
t_1_8 - t_1_4 + 1024.000000 u_1_4_8 - 1.852658 s_1_4 + 1.852658 s_1_7 + 2048.000000 r_1_4_8 > 0.250300
s_2_8 + s_2_4 + 1024 r_2_4_8 >= 2
- s_2_8 - s_2_4 - 1024 r_2_4_8 >= -1025
t_2_8 - t_2_4 + 1024.000000 u_2_4_8 - 1.731947 s_2_4 + 1.731947 s_2_7 + 2048.000000 r_2_4_8 > 2.062536
s_1_8 + s_1_7 + 1024 r_1_7_8 >= 2
- s_1_8 - s_1_7 - 1024 r_1_7_8 >= -1025
t_1_8 - t_1_7 + 1024.000000 u_1_7_8 + 2048.000000 r_1_7_8 > 5.814075
s_2_8 + s_2_7 + 1024 r_2_7_8 >= 2
- s_2_8 - s_2_7 - 1024 r_2_7_8 >= -1025
t_2_8 - t_2_7 + 1024.000000 u_2_7_8 + 2048.000000 r_2_7_8 > 18.138464
Binary
s_1_1
s_2_1
s_1_2
s_2_2
s_1_3
s_2_3
s_1_4
s_2_4
s_1_5
s_2_5
s_1_6
s_2_6
s_1_7
s_2_7
s_1_8
s_2_8
u_1_1_2
r_1_1_2
u_2_1_2
r_2_1_2
u_1_1_3
r_1_1_3
u_2_1_3
r_2_1_3
u_1_1_4
r_1_1_4
u_2_1_4
r_2_1_4
u_1_1_5
r_1_1_5
u_2_1_5
r_2_1_5
u_1_2_3
r_1_2_3
u_2_2_3
r_2_2_3
u_1_2_4
r_1_2_4
u_2_2_4
r_2_2_4
u_1_2_5
r_1_2_5
u_2_2_5
r_2_2_5
u_1_2_8
r_1_2_8
u_2_2_8
r_2_2_8
u_1_3_4
r_1_3_4
u_2_3_4
r_2_3_4
u_1_3_5
r_1_3_5
u_2_3_5
r_2_3_5
u_1_4_5
r_1_4_5
u_2_4_5
r_2_4_5
u_1_4_8
r_1_4_8
u_2_4_8
r_2_4_8
u_1_5_7
r_1_5_7
u_2_5_7
r_2_5_7
u_1_7_8
r_1_7_8
u_2_7_8
r_2_7_8

End
